Traveling Salesman Problem/TSP_generados/Aleatorio1620390868_6.tsp
NAME: Aleatorio1620390868_6.tsp
COMMENT: Randomly generated scenario
TYPE: TSP
DIMENSION: 6
EDGE_WEIGHT_TYPE: ATT
NODE_COORD_SECTION
1 24.16 22.7
2 18.55 18.99
3 9.09 47.87
4 32.08 11.57
5 13.17 40.17
6 41.67 16.06
