Traveling Salesman Problem/TSP_generados/Aleatorio1620390868_6.opt.tour
NAME: Aleatorio1620390868_6.opt.tour
COMMENT: Optimal solution for Aleatorio1620390868_6 (104.49017733977037)
TYPE: TOUR
DIMENSION: 6
TOUR_SECTION
1 6 4 2 3 5
-1
EOF
